4049
3479
1609
3257
392
2707
2118
3923
3382
2618
3448
3763
1976
3773
4062
1625
4054
4164
1413
1549
358
3662
370
146
3577
1811
2924
988
2750
3636
1987
1091
2391
3535
1424
3243
614
3554
4261
4019
3895
379
1257
3343
4220
2341
1277
3216
2678
322
385
4126
2382
1863
3699
1809
1428
351
626
732
3264
414
3639
3374
210
2798
2535
1968
3117
3396
3457
3358
164
752
3135
3779
2293
3608
3729
2602
4054
3085
3332
1581
2603
1330
1697
3634
4171
4025
4435
4170
3133
723
4470
3602
816
1601
1935
2613
